;  time  = 600
;  chars = 825
;  score = 0.8717151298398382
(set-logic QF_FP)
(declare-const x0 (_ FloatingPoint 8 24))
(declare-const x1 (_ FloatingPoint 8 24))
(declare-const x2 (_ FloatingPoint 8 24))
(declare-const x3 (_ FloatingPoint 8 24))
(declare-const x4 (_ FloatingPoint 8 24))
(declare-const x5 (_ FloatingPoint 8 24))
(declare-const x6 (_ FloatingPoint 8 24))
(declare-const x7 (_ FloatingPoint 8 24))
(declare-const x8 (_ FloatingPoint 8 24))
(declare-const x9 (_ FloatingPoint 8 24))
(declare-const x10 (_ FloatingPoint 8 24))
(declare-const x11 (_ FloatingPoint 8 24))
(declare-const x12 (_ FloatingPoint 8 24))
(declare-const x13 (_ FloatingPoint 8 24))
(declare-const x14 (_ FloatingPoint 8 24))
(assert (fp.isSubnormal (fp.mul RNE (fp.sub RNE (fp.add RNE x8 x12) (fp.add RNE (fp.add RNE (fp.abs (fp.neg (fp.abs (fp.sub RNE (fp.abs x2) x3)))) (fp.mul RNE (fp.mul RNE (fp.mul RNE (fp.add RNE (fp.abs x4) (fp.mul RNE x8 x7)) x12) x0) (fp.mul RNE x14 (fp.mul RNE (fp.mul RNE (fp.add RNE x12 x13) (fp.add RNE x10 x2)) (fp.sub RNE (fp.neg x0) x6))))) (fp.sub RNE (fp.mul RNE (fp.sub RNE (fp.sub RNE (fp.sub RNE x5 (fp.sub RNE x9 x8)) x10) (fp.add RNE x8 (fp.abs (fp.neg x6)))) (fp.add RNE (fp.mul RNE x0 (fp.neg (fp.neg x14))) (fp.neg (fp.mul RNE (fp.neg x0) (fp.mul RNE x14 x2))))) (fp.sub RNE (fp.neg (fp.sub RNE (fp.neg (fp.mul RNE x2 x3)) (fp.neg (fp.add RNE x3 x3)))) x2)))) (fp.mul RNE (fp.mul RNE x3 (fp.add RNE x2 x3)) (fp.neg (fp.abs (fp.neg (fp.sub RNE (fp.mul RNE x3 (fp.abs (fp.mul RNE x0 x5))) (fp.abs (fp.neg x0))))))))))
(check-sat)